p cnf 23 53
a 4 21 0
e 1 2 3 5 6 7 8 9 10 11 12 13 14 15 16 17 18 19 20 22 23 0
3 -1 0
3 -2 0
1 2 -3 0
-5 4 0
-5 -2 0
-4 2 5 0
3 -5 -6 0
-3 5 -6 0
3 5 6 0
-3 -5 6 0
-7 6 0
-7 2 0
-6 -2 7 0
9 -8 0
9 8 0
-10 7 0
-10 9 0
-7 -9 10 0
12 -11 0
12 1 0
11 -1 -12 0
13 12 0
13 1 0
-12 -1 -13 0
16 11 0
16 -15 0
-11 15 -16 0
-17 14 0
-17 -16 0
-14 16 17 0
13 17 -18 0
-13 -17 -18 0
13 -17 18 0
-13 17 18 0
20 19 0
20 -2 0
-19 2 -20 0
-21 -20 0
-21 19 0
20 -19 21 0
-18 -21 -22 0
18 21 -22 0
-18 21 22 0
18 -21 22 0
23 10 0
23 -22 0
-10 22 -23 0
16 2 -13 0
-6 -14 -4 -5 11 13 0
6 -10 5 -19 8 -21 0
-17 10 5 6 3 0
-14 -22 -3 18 0
23 0
